b"Opening JSON file..\nfn: input_127.txt\nmetrics: ['crossing_angle_maximization', 'angular_resolution']\ngraph: hypercube 5\ngenerating graph of 32 nodes\naspect_ratio 0.33213019371032715\nvertex_resolution 0.9724970441311598\nstress 12.62200753674397\ncrossings 444\ngabriel 0.9778307899832726\nneighborhood_preservation 1\nangular_resolution 1.0\nedge_uniformity 5.102297782897949\ncrossing_angle_maximization 0.9641180843688179\n"
