b"Opening JSON file..\nfn: input_167.txt\nmetrics: ['crossings', 'aspect_ratio']\ngraph: hypercube 6\ngenerating graph of 64 nodes\ncrossings 1339\nneighborhood_preservation 1\nedge_uniformity 3.691964864730835\ngabriel 0.9552007727324963\ncrossing_angle_maximization 0.9863294800947454\nangular_resolution 1.0\nstress 12.138784146612949\naspect_ratio 0.06958234310150146\nvertex_resolution 0.9673589915037155\n"
