b"Opening JSON file..\nfn: input_141.txt\nmetrics: ['aspect_ratio']\ngraph: hypercube 6\ngenerating graph of 64 nodes\naspect_ratio 0.04692798852920532\ncrossings 4996\ncrossing_angle_maximization 0.9950752337629837\nstress 22.72853233795695\ngabriel 0.9741965290158987\nneighborhood_preservation 1\nedge_uniformity 5.432389259338379\nvertex_resolution 0.9443029090762138\nangular_resolution 1.0\n"
