b'generating graph of 64 nodes\nCalculating all pairs shortest path...done\nEpoch   703: reducing learning rate of group 0 to 9.0000e-02.\nstress 22.560093420270483\nedge_uniformity 3.799926996231079\nneighborhood_preservation 0\ncrossings 1168\ncrossing_angle_maximization 0.9854444393602934\naspect_ratio 0.8558650016784668\nangular_resolution 0.0\nvertex_resolution 0.10472487658262253\ngabriel 0.03536677360534668\n'
