b'generating graph of 64 nodes\nCalculating all pairs shortest path...done\nEpoch   706: reducing learning rate of group 0 to 9.0000e-02.\nstress 33.38642101607298\nedge_uniformity 4.1991143226623535\nneighborhood_preservation 0\ncrossings 1152\ncrossing_angle_maximization 0.9805618406866143\naspect_ratio 0.9044851660728455\nangular_resolution 0.0\nvertex_resolution 0.1252484917640686\ngabriel 0.013801663182675838\n'
