b"Opening JSON file..\nfn: input_214.txt\nmetrics: ['crossings', 'vertex_resolution']\ngraph: hypercube 7\ngenerating graph of 128 nodes\nvertex_resolution 0.9373789355158806\nstress 22.99401983390451\naspect_ratio 0.11346447467803955\nangular_resolution 1.0\nedge_uniformity 5.2318806648254395\nneighborhood_preservation 1\ngabriel 0.9886991810053587\ncrossings 7180\ncrossing_angle_maximization 0.9938612055835093\n"
