b"Opening JSON file..\nfn: input_216.txt\nmetrics: ['crossing_angle_maximization', 'aspect_ratio']\ngraph: hypercube 7\ngenerating graph of 128 nodes\ngabriel 0.9835546091198921\nedge_uniformity 4.816188812255859\ncrossing_angle_maximization 0.9898246396750225\nangular_resolution 1.0\naspect_ratio 0.0265963077545166\nvertex_resolution 0.9645140804350376\ncrossings 28129\nstress 12.677131478453953\nneighborhood_preservation 1\n"
