b"Opening JSON file..\nfn: input_95.txt\nmetrics: ['crossing_angle_maximization']\ngraph: hypercube 5\ngenerating graph of 32 nodes\ngabriel 0.9746204894036055\nneighborhood_preservation 1\ncrossings 569\ncrossing_angle_maximization 0.9930422659020247\nstress 11.750307762657377\nedge_uniformity 4.805364608764648\naspect_ratio 0.11087983846664429\nangular_resolution 1.0\nvertex_resolution 0.986940547823906\n"
