b"Opening JSON file..\nfn: input_82.txt\nmetrics: ['crossing_angle_maximization', 'angular_resolution']\ngraph: hypercube 4\ngenerating graph of 16 nodes\nneighborhood_preservation 1\ncrossings 63\nangular_resolution 1.0\nedge_uniformity 3.772378444671631\ngabriel 0.975706372410059\nstress 12.919202026353597\ncrossing_angle_maximization 0.9066644303454401\nvertex_resolution 0.9445234723389149\naspect_ratio 0.055972278118133545\n"
