b"Opening JSON file..\nfn: input_186.txt\nmetrics: ['aspect_ratio']\ngraph: hypercube 7\ngenerating graph of 128 nodes\nedge_uniformity 4.452177047729492\nvertex_resolution 0.9718644116073847\ngabriel 0.9847130915150046\nangular_resolution 1.0\nstress 11.713928961213387\naspect_ratio 0.042821526527404785\nneighborhood_preservation 1\ncrossing_angle_maximization 0.9959529889623211\ncrossings 28842\n"
