b"Opening JSON file..\nfn: input_38.txt\nmetrics: ['crossing_angle_maximization', 'vertex_resolution']\ngraph: hypercube 3\ngenerating graph of 8 nodes\nstress 11.228007768643657\ncrossing_angle_maximization 0.5054095237364177\nangular_resolution 1.0\naspect_ratio 0.1256456971168518\nedge_uniformity 2.0458967685699463\nvertex_resolution 0.4503679871559143\nneighborhood_preservation 1\ngabriel 0.7223587930202484\ncrossings 17\n"
